c User generated cnf file
p cnf 9 37
4 -2 1 0 
4 -6 8 0 
2 -2 7 0 
1 -7 3 0 
2 6 -9 0 
5 -2 4 0 
1 -4 1 0 
5 -3 8 0 
6 -4 5 0 
3 5 -5 0 
5 8 -3 0 
2 6 -3 0 
6 6 -5 0 
7 -4 5 0 
7 4 -5 0 
2 1 -5 0 
2 8 -8 0 
3 -3 2 0 
1 4 -5 0 
9 6 -6 0 
2 4 -4 0 
7 -7 9 0 
5 6 -2 0 
9 -4 2 0 
7 -2 4 0 
4 -6 1 0 
8 -5 3 0 
5 -7 8 0 
9 4 -6 0 
9 -6 6 0 
5 1 -7 0 
1 -1 8 0 
6 6 -7 0 
3 9 -6 0 
9 -8 1 0 
9 4 -7 0 
4 -2 5 0 
